70
1 0 14
2 0 50
2 1 40
3 0 36
3 1 49
3 2 53
4 0 56
4 1 42
4 2 25
4 3 33
5 0 4
5 1 11
5 2 19
5 3 15
5 4 60
6 0 9
6 1 52
6 2 44
6 3 17
6 4 25
6 5 39
7 0 1
7 1 24
7 2 17
7 3 49
7 4 51
7 5 46
7 6 1
8 0 50
8 1 40
8 2 58
8 3 37
8 4 45
8 5 50
8 6 10
8 7 30
9 0 25
9 1 48
9 2 41
9 3 5
9 4 37
9 5 16
9 6 16
9 7 14
9 8 50
10 0 43
10 1 33
10 2 23
10 3 6
10 4 51
10 5 32
10 6 33
10 7 16
10 8 32
10 9 25
11 0 34
11 1 31
11 2 47
11 3 51
11 4 26
11 5 9
11 6 25
11 7 24
11 8 22
11 9 42
11 10 38
12 0 6
12 1 7
12 2 8
12 3 36
12 4 4
12 5 43
12 6 35
12 7 55
12 8 46
12 9 18
12 10 52
12 11 21
13 0 13
13 1 14
13 2 48
13 3 16
13 4 22
13 5 19
13 6 3
13 7 46
13 8 31
13 9 49
13 10 55
13 11 22
13 12 6
14 0 52
14 1 25
14 2 38
14 3 43
14 4 3
14 5 38
14 6 19
14 7 4
14 8 44
14 9 55
14 10 50
14 11 46
14 12 54
14 13 41
15 0 55
15 1 53
15 2 3
15 3 49
15 4 8
15 5 15
15 6 8
15 7 49
15 8 21
15 9 51
15 10 35
15 11 13
15 12 24
15 13 5
15 14 5
16 0 14
16 1 38
16 2 27
16 3 30
16 4 10
16 5 60
16 6 19
16 7 8
16 8 17
16 9 43
16 10 23
16 11 14
16 12 20
16 13 59
16 14 13
16 15 27
17 0 36
17 1 10
17 2 3
17 3 42
17 4 24
17 5 15
17 6 33
17 7 30
17 8 22
17 9 35
17 10 28
17 11 47
17 12 48
17 13 25
17 14 60
17 15 54
17 16 11
18 0 31
18 1 40
18 2 8
18 3 20
18 4 51
18 5 55
18 6 59
18 7 1
18 8 12
18 9 35
18 10 5
18 11 1
18 12 20
18 13 7
18 14 34
18 15 41
18 16 51
18 17 12
19 0 2
19 1 53
19 2 52
19 3 4
19 4 37
19 5 30
19 6 29
19 7 34
19 8 53
19 9 4
19 10 7
19 11 7
19 12 9
19 13 22
19 14 41
19 15 45
19 16 1
19 17 39
19 18 60
20 0 3
20 1 48
20 2 9
20 3 41
20 4 41
20 5 14
20 6 58
20 7 55
20 8 45
20 9 47
20 10 25
20 11 20
20 12 13
20 13 15
20 14 37
20 15 11
20 16 12
20 17 37
20 18 28
20 19 32
21 0 46
21 1 14
21 2 55
21 3 1
21 4 31
21 5 59
21 6 44
21 7 30
21 8 15
21 9 46
21 10 9
21 11 41
21 12 21
21 13 33
21 14 27
21 15 26
21 16 44
21 17 56
21 18 3
21 19 24
21 20 25
22 0 53
22 1 47
22 2 11
22 3 15
22 4 55
22 5 20
22 6 13
22 7 14
22 8 17
22 9 8
22 10 4
22 11 20
22 12 32
22 13 17
22 14 39
22 15 3
22 16 45
22 17 55
22 18 52
22 19 48
22 20 20
22 21 26
23 0 27
23 1 6
23 2 51
23 3 29
23 4 4
23 5 7
23 6 46
23 7 24
23 8 59
23 9 51
23 10 44
23 11 41
23 12 56
23 13 12
23 14 50
23 15 39
23 16 45
23 17 43
23 18 1
23 19 23
23 20 9
23 21 39
23 22 40
24 0 32
24 1 37
24 2 41
24 3 52
24 4 40
24 5 14
24 6 25
24 7 50
24 8 11
24 9 5
24 10 29
24 11 53
24 12 3
24 13 21
24 14 1
24 15 27
24 16 45
24 17 20
24 18 36
24 19 17
24 20 20
24 21 5
24 22 6
24 23 55
25 0 27
25 1 17
25 2 53
25 3 46
25 4 32
25 5 32
25 6 33
25 7 41
25 8 56
25 9 22
25 10 55
25 11 45
25 12 18
25 13 23
25 14 59
25 15 32
25 16 34
25 17 29
25 18 7
25 19 18
25 20 34
25 21 13
25 22 47
25 23 47
25 24 55
26 0 28
26 1 29
26 2 24
26 3 43
26 4 59
26 5 30
26 6 11
26 7 12
26 8 51
26 9 4
26 10 52
26 11 42
26 12 34
26 13 45
26 14 39
26 15 57
26 16 13
26 17 13
26 18 43
26 19 1
26 20 25
26 21 36
26 22 39
26 23 33
26 24 35
26 25 24
27 0 8
27 1 31
27 2 38
27 3 23
27 4 35
27 5 11
27 6 39
27 7 55
27 8 48
27 9 53
27 10 44
27 11 55
27 12 36
27 13 32
27 14 2
27 15 5
27 16 59
27 17 17
27 18 1
27 19 18
27 20 33
27 21 44
27 22 8
27 23 20
27 24 52
27 25 24
27 26 41
28 0 2
28 1 21
28 2 24
28 3 17
28 4 56
28 5 39
28 6 46
28 7 28
28 8 46
28 9 31
28 10 41
28 11 22
28 12 24
28 13 59
28 14 31
28 15 5
28 16 13
28 17 60
28 18 27
28 19 45
28 20 39
28 21 3
28 22 18
28 23 4
28 24 55
28 25 14
28 26 32
28 27 46
29 0 50
29 1 3
29 2 45
29 3 34
29 4 6
29 5 39
29 6 3
29 7 18
29 8 54
29 9 23
29 10 5
29 11 26
29 12 17
29 13 6
29 14 50
29 15 6
29 16 53
29 17 5
29 18 10
29 19 21
29 20 60
29 21 60
29 22 54
29 23 16
29 24 47
29 25 5
29 26 49
29 27 13
29 28 26
30 0 20
30 1 3
30 2 15
30 3 24
30 4 42
30 5 32
30 6 30
30 7 4
30 8 13
30 9 31
30 10 7
30 11 31
30 12 53
30 13 28
30 14 59
30 15 5
30 16 30
30 17 44
30 18 23
30 19 9
30 20 50
30 21 48
30 22 19
30 23 3
30 24 54
30 25 4
30 26 2
30 27 15
30 28 12
30 29 23
31 0 7
31 1 13
31 2 7
31 3 52
31 4 12
31 5 18
31 6 47
31 7 47
31 8 53
31 9 4
31 10 27
31 11 18
31 12 55
31 13 24
31 14 45
31 15 35
31 16 14
31 17 36
31 18 34
31 19 33
31 20 36
31 21 17
31 22 24
31 23 7
31 24 8
31 25 44
31 26 35
31 27 51
31 28 37
31 29 54
31 30 27
32 0 23
32 1 33
32 2 31
32 3 23
32 4 51
32 5 30
32 6 47
32 7 41
32 8 28
32 9 53
32 10 30
32 11 13
32 12 46
32 13 23
32 14 60
32 15 28
32 16 9
32 17 50
32 18 47
32 19 36
32 20 58
32 21 56
32 22 3
32 23 24
32 24 59
32 25 16
32 26 20
32 27 27
32 28 15
32 29 36
32 30 7
32 31 43
33 0 29
33 1 18
33 2 56
33 3 27
33 4 35
33 5 22
33 6 26
33 7 9
33 8 58
33 9 25
33 10 28
33 11 53
33 12 38
33 13 43
33 14 60
33 15 21
33 16 24
33 17 56
33 18 43
33 19 21
33 20 33
33 21 17
33 22 14
33 23 39
33 24 51
33 25 21
33 26 35
33 27 14
33 28 43
33 29 31
33 30 12
33 31 41
33 32 2
34 0 3
34 1 49
34 2 1
34 3 44
34 4 6
34 5 40
34 6 9
34 7 24
34 8 4
34 9 7
34 10 7
34 11 16
34 12 30
34 13 42
34 14 23
34 15 23
34 16 1
34 17 51
34 18 55
34 19 11
34 20 8
34 21 12
34 22 14
34 23 9
34 24 5
34 25 57
34 26 5
34 27 41
34 28 42
34 29 50
34 30 42
34 31 27
34 32 20
34 33 36
35 0 1
35 1 30
35 2 6
35 3 4
35 4 48
35 5 6
35 6 57
35 7 8
35 8 55
35 9 9
35 10 35
35 11 28
35 12 14
35 13 29
35 14 52
35 15 30
35 16 38
35 17 28
35 18 31
35 19 7
35 20 18
35 21 41
35 22 14
35 23 8
35 24 16
35 25 50
35 26 16
35 27 24
35 28 41
35 29 39
35 30 24
35 31 20
35 32 38
35 33 57
35 34 43
36 0 48
36 1 16
36 2 58
36 3 38
36 4 4
36 5 23
36 6 20
36 7 60
36 8 5
36 9 3
36 10 46
36 11 24
36 12 14
36 13 57
36 14 4
36 15 50
36 16 30
36 17 2
36 18 5
36 19 25
36 20 24
36 21 13
36 22 35
36 23 56
36 24 28
36 25 1
36 26 27
36 27 6
36 28 58
36 29 7
36 30 32
36 31 11
36 32 4
36 33 42
36 34 56
36 35 3
37 0 46
37 1 43
37 2 44
37 3 56
37 4 12
37 5 29
37 6 23
37 7 42
37 8 17
37 9 22
37 10 16
37 11 51
37 12 34
37 13 29
37 14 8
37 15 5
37 16 3
37 17 24
37 18 29
37 19 59
37 20 7
37 21 31
37 22 56
37 23 54
37 24 48
37 25 43
37 26 22
37 27 31
37 28 26
37 29 6
37 30 17
37 31 23
37 32 48
37 33 7
37 34 36
37 35 31
37 36 45
38 0 27
38 1 59
38 2 46
38 3 54
38 4 24
38 5 11
38 6 33
38 7 39
38 8 34
38 9 16
38 10 26
38 11 47
38 12 11
38 13 38
38 14 11
38 15 26
38 16 15
38 17 57
38 18 38
38 19 58
38 20 36
38 21 44
38 22 23
38 23 20
38 24 14
38 25 8
38 26 2
38 27 53
38 28 38
38 29 57
38 30 49
38 31 18
38 32 10
38 33 9
38 34 32
38 35 51
38 36 21
38 37 19
39 0 3
39 1 34
39 2 55
39 3 54
39 4 13
39 5 8
39 6 48
39 7 2
39 8 38
39 9 51
39 10 32
39 11 24
39 12 33
39 13 41
39 14 45
39 15 27
39 16 4
39 17 23
39 18 32
39 19 50
39 20 25
39 21 11
39 22 7
39 23 56
39 24 44
39 25 30
39 26 59
39 27 47
39 28 44
39 29 45
39 30 20
39 31 56
39 32 32
39 33 6
39 34 46
39 35 53
39 36 48
39 37 49
39 38 13
40 0 3
40 1 44
40 2 36
40 3 45
40 4 45
40 5 6
40 6 48
40 7 52
40 8 18
40 9 23
40 10 50
40 11 5
40 12 21
40 13 60
40 14 52
40 15 9
40 16 12
40 17 51
40 18 30
40 19 20
40 20 28
40 21 51
40 22 30
40 23 9
40 24 24
40 25 6
40 26 20
40 27 56
40 28 52
40 29 57
40 30 14
40 31 4
40 32 48
40 33 1
40 34 4
40 35 19
40 36 22
40 37 57
40 38 8
40 39 17
41 0 22
41 1 28
41 2 59
41 3 22
41 4 38
41 5 6
41 6 23
41 7 53
41 8 26
41 9 25
41 10 17
41 11 35
41 12 58
41 13 55
41 14 40
41 15 7
41 16 39
41 17 43
41 18 7
41 19 39
41 20 46
41 21 46
41 22 48
41 23 30
41 24 34
41 25 8
41 26 14
41 27 35
41 28 58
41 29 48
41 30 54
41 31 53
41 32 32
41 33 51
41 34 33
41 35 20
41 36 7
41 37 50
41 38 57
41 39 60
41 40 36
42 0 12
42 1 11
42 2 1
42 3 34
42 4 32
42 5 57
42 6 7
42 7 37
42 8 10
42 9 24
42 10 30
42 11 8
42 12 37
42 13 21
42 14 12
42 15 9
42 16 44
42 17 5
42 18 42
42 19 60
42 20 22
42 21 4
42 22 57
42 23 50
42 24 12
42 25 7
42 26 13
42 27 4
42 28 3
42 29 55
42 30 34
42 31 29
42 32 26
42 33 12
42 34 40
42 35 27
42 36 44
42 37 31
42 38 24
42 39 33
42 40 48
42 41 44
43 0 20
43 1 31
43 2 2
43 3 36
43 4 9
43 5 22
43 6 19
43 7 1
43 8 33
43 9 3
43 10 13
43 11 52
43 12 9
43 13 53
43 14 24
43 15 30
43 16 26
43 17 59
43 18 10
43 19 12
43 20 60
43 21 1
43 22 41
43 23 26
43 24 15
43 25 13
43 26 52
43 27 27
43 28 28
43 29 29
43 30 38
43 31 35
43 32 9
43 33 57
43 34 36
43 35 31
43 36 40
43 37 24
43 38 15
43 39 12
43 40 42
43 41 15
43 42 43
44 0 6
44 1 23
44 2 16
44 3 16
44 4 11
44 5 35
44 6 1
44 7 10
44 8 40
44 9 59
44 10 44
44 11 45
44 12 31
44 13 7
44 14 10
44 15 33
44 16 8
44 17 7
44 18 40
44 19 8
44 20 47
44 21 4
44 22 20
44 23 52
44 24 44
44 25 12
44 26 12
44 27 32
44 28 2
44 29 14
44 30 43
44 31 56
44 32 35
44 33 44
44 34 57
44 35 37
44 36 43
44 37 13
44 38 23
44 39 26
44 40 34
44 41 15
44 42 6
44 43 37
45 0 58
45 1 3
45 2 47
45 3 31
45 4 41
45 5 10
45 6 54
45 7 8
45 8 57
45 9 7
45 10 49
45 11 16
45 12 56
45 13 19
45 14 55
45 15 51
45 16 33
45 17 40
45 18 54
45 19 32
45 20 35
45 21 19
45 22 41
45 23 4
45 24 8
45 25 51
45 26 45
45 27 39
45 28 52
45 29 38
45 30 2
45 31 22
45 32 40
45 33 19
45 34 8
45 35 36
45 36 20
45 37 32
45 38 59
45 39 47
45 40 52
45 41 14
45 42 12
45 43 2
45 44 17
46 0 35
46 1 18
46 2 21
46 3 47
46 4 54
46 5 3
46 6 42
46 7 8
46 8 15
46 9 25
46 10 1
46 11 19
46 12 49
46 13 42
46 14 47
46 15 48
46 16 56
46 17 12
46 18 59
46 19 10
46 20 26
46 21 12
46 22 33
46 23 50
46 24 60
46 25 7
46 26 27
46 27 54
46 28 9
46 29 23
46 30 3
46 31 51
46 32 27
46 33 4
46 34 39
46 35 14
46 36 5
46 37 34
46 38 2
46 39 34
46 40 31
46 41 42
46 42 31
46 43 27
46 44 14
46 45 3
47 0 55
47 1 6
47 2 44
47 3 32
47 4 24
47 5 14
47 6 10
47 7 26
47 8 2
47 9 53
47 10 13
47 11 19
47 12 33
47 13 24
47 14 18
47 15 43
47 16 49
47 17 58
47 18 12
47 19 22
47 20 41
47 21 12
47 22 35
47 23 27
47 24 26
47 25 49
47 26 52
47 27 7
47 28 8
47 29 24
47 30 48
47 31 18
47 32 12
47 33 32
47 34 27
47 35 30
47 36 18
47 37 5
47 38 24
47 39 58
47 40 27
47 41 31
47 42 33
47 43 48
47 44 35
47 45 6
47 46 41
48 0 30
48 1 21
48 2 39
48 3 49
48 4 11
48 5 37
48 6 14
48 7 46
48 8 39
48 9 3
48 10 53
48 11 47
48 12 37
48 13 57
48 14 10
48 15 50
48 16 4
48 17 42
48 18 16
48 19 8
48 20 38
48 21 3
48 22 58
48 23 2
48 24 13
48 25 53
48 26 33
48 27 1
48 28 24
48 29 56
48 30 34
48 31 51
48 32 14
48 33 3
48 34 2
48 35 53
48 36 41
48 37 46
48 38 34
48 39 3
48 40 35
48 41 10
48 42 10
48 43 18
48 44 1
48 45 23
48 46 10
48 47 3
49 0 26
49 1 23
49 2 14
49 3 24
49 4 52
49 5 40
49 6 25
49 7 55
49 8 9
49 9 3
49 10 53
49 11 12
49 12 58
49 13 47
49 14 31
49 15 44
49 16 13
49 17 38
49 18 47
49 19 32
49 20 39
49 21 32
49 22 28
49 23 43
49 24 24
49 25 5
49 26 60
49 27 59
49 28 20
49 29 10
49 30 49
49 31 36
49 32 26
49 33 58
49 34 38
49 35 22
49 36 58
49 37 36
49 38 47
49 39 45
49 40 44
49 41 5
49 42 3
49 43 6
49 44 49
49 45 7
49 46 19
49 47 36
49 48 46
50 0 3
50 1 25
50 2 20
50 3 57
50 4 13
50 5 39
50 6 50
50 7 29
50 8 5
50 9 56
50 10 49
50 11 13
50 12 11
50 13 48
50 14 51
50 15 21
50 16 50
50 17 14
50 18 31
50 19 57
50 20 46
50 21 33
50 22 58
50 23 21
50 24 37
50 25 30
50 26 8
50 27 3
50 28 28
50 29 22
50 30 56
50 31 46
50 32 22
50 33 49
50 34 11
50 35 50
50 36 1
50 37 43
50 38 11
50 39 51
50 40 16
50 41 12
50 42 3
50 43 23
50 44 26
50 45 31
50 46 23
50 47 13
50 48 59
50 49 51
51 0 38
51 1 27
51 2 24
51 3 46
51 4 41
51 5 14
51 6 29
51 7 6
51 8 56
51 9 2
51 10 60
51 11 26
51 12 22
51 13 60
51 14 41
51 15 35
51 16 14
51 17 26
51 18 54
51 19 34
51 20 10
51 21 30
51 22 31
51 23 6
51 24 13
51 25 57
51 26 55
51 27 31
51 28 49
51 29 12
51 30 50
51 31 42
51 32 43
51 33 10
51 34 55
51 35 29
51 36 32
51 37 48
51 38 47
51 39 27
51 40 21
51 41 48
51 42 17
51 43 11
51 44 33
51 45 36
51 46 2
51 47 26
51 48 47
51 49 7
51 50 31
52 0 45
52 1 40
52 2 53
52 3 22
52 4 26
52 5 57
52 6 55
52 7 29
52 8 53
52 9 50
52 10 57
52 11 16
52 12 52
52 13 51
52 14 15
52 15 53
52 16 8
52 17 39
52 18 6
52 19 46
52 20 22
52 21 17
52 22 25
52 23 14
52 24 27
52 25 6
52 26 23
52 27 19
52 28 37
52 29 11
52 30 54
52 31 5
52 32 54
52 33 2
52 34 17
52 35 57
52 36 52
52 37 55
52 38 33
52 39 53
52 40 37
52 41 57
52 42 5
52 43 25
52 44 39
52 45 8
52 46 41
52 47 56
52 48 56
52 49 32
52 50 14
52 51 38
53 0 15
53 1 38
53 2 25
53 3 4
53 4 46
53 5 27
53 6 19
53 7 9
53 8 22
53 9 45
53 10 52
53 11 19
53 12 11
53 13 54
53 14 12
53 15 50
53 16 23
53 17 42
53 18 45
53 19 30
53 20 5
53 21 32
53 22 34
53 23 37
53 24 60
53 25 35
53 26 46
53 27 36
53 28 18
53 29 59
53 30 44
53 31 34
53 32 31
53 33 13
53 34 11
53 35 7
53 36 42
53 37 49
53 38 58
53 39 50
53 40 13
53 41 41
53 42 35
53 43 21
53 44 37
53 45 10
53 46 47
53 47 60
53 48 39
53 49 48
53 50 31
53 51 23
53 52 23
54 0 37
54 1 4
54 2 22
54 3 56
54 4 2
54 5 24
54 6 17
54 7 15
54 8 57
54 9 60
54 10 35
54 11 56
54 12 36
54 13 26
54 14 52
54 15 15
54 16 6
54 17 46
54 18 14
54 19 29
54 20 57
54 21 28
54 22 34
54 23 34
54 24 51
54 25 16
54 26 43
54 27 27
54 28 24
54 29 19
54 30 6
54 31 48
54 32 53
54 33 27
54 34 7
54 35 55
54 36 3
54 37 39
54 38 9
54 39 49
54 40 30
54 41 39
54 42 25
54 43 9
54 44 5
54 45 29
54 46 42
54 47 18
54 48 43
54 49 33
54 50 40
54 51 39
54 52 12
54 53 15
55 0 36
55 1 5
55 2 2
55 3 19
55 4 26
55 5 6
55 6 22
55 7 28
55 8 39
55 9 11
55 10 31
55 11 8
55 12 16
55 13 18
55 14 52
55 15 60
55 16 60
55 17 26
55 18 41
55 19 59
55 20 28
55 21 59
55 22 36
55 23 47
55 24 57
55 25 59
55 26 36
55 27 55
55 28 51
55 29 46
55 30 41
55 31 20
55 32 11
55 33 21
55 34 44
55 35 27
55 36 44
55 37 48
55 38 8
55 39 39
55 40 23
55 41 19
55 42 9
55 43 28
55 44 4
55 45 39
55 46 13
55 47 51
55 48 13
55 49 23
55 50 30
55 51 23
55 52 43
55 53 53
55 54 35
56 0 16
56 1 43
56 2 8
56 3 3
56 4 38
56 5 45
56 6 49
56 7 6
56 8 11
56 9 4
56 10 5
56 11 50
56 12 28
56 13 11
56 14 5
56 15 37
56 16 9
56 17 54
56 18 23
56 19 45
56 20 13
56 21 29
56 22 16
56 23 17
56 24 54
56 25 39
56 26 9
56 27 41
56 28 40
56 29 32
56 30 20
56 31 53
56 32 46
56 33 47
56 34 39
56 35 40
56 36 60
56 37 33
56 38 14
56 39 37
56 40 50
56 41 58
56 42 55
56 43 59
56 44 51
56 45 16
56 46 16
56 47 7
56 48 26
56 49 55
56 50 21
56 51 31
56 52 54
56 53 7
56 54 32
56 55 39
57 0 33
57 1 34
57 2 54
57 3 46
57 4 34
57 5 45
57 6 16
57 7 40
57 8 26
57 9 36
57 10 55
57 11 13
57 12 22
57 13 32
57 14 12
57 15 41
57 16 9
57 17 21
57 18 49
57 19 31
57 20 10
57 21 18
57 22 43
57 23 10
57 24 25
57 25 16
57 26 24
57 27 47
57 28 12
57 29 7
57 30 18
57 31 6
57 32 17
57 33 28
57 34 46
57 35 51
57 36 5
57 37 24
57 38 27
57 39 24
57 40 5
57 41 4
57 42 13
57 43 37
57 44 24
57 45 57
57 46 5
57 47 56
57 48 22
57 49 31
57 50 32
57 51 19
57 52 27
57 53 19
57 54 26
57 55 33
57 56 59
58 0 42
58 1 15
58 2 58
58 3 26
58 4 6
58 5 18
58 6 38
58 7 9
58 8 5
58 9 23
58 10 35
58 11 54
58 12 45
58 13 52
58 14 38
58 15 43
58 16 32
58 17 7
58 18 44
58 19 37
58 20 60
58 21 51
58 22 10
58 23 25
58 24 22
58 25 55
58 26 46
58 27 39
58 28 59
58 29 19
58 30 7
58 31 18
58 32 53
58 33 41
58 34 25
58 35 54
58 36 3
58 37 37
58 38 17
58 39 5
58 40 13
58 41 15
58 42 4
58 43 49
58 44 6
58 45 13
58 46 58
58 47 48
58 48 40
58 49 55
58 50 23
58 51 43
58 52 39
58 53 32
58 54 10
58 55 22
58 56 19
58 57 25
59 0 39
59 1 1
59 2 31
59 3 37
59 4 44
59 5 16
59 6 13
59 7 51
59 8 22
59 9 16
59 10 12
59 11 60
59 12 7
59 13 21
59 14 41
59 15 4
59 16 44
59 17 8
59 18 47
59 19 12
59 20 1
59 21 46
59 22 22
59 23 59
59 24 12
59 25 58
59 26 38
59 27 29
59 28 42
59 29 47
59 30 19
59 31 24
59 32 1
59 33 29
59 34 35
59 35 24
59 36 10
59 37 55
59 38 49
59 39 44
59 40 50
59 41 4
59 42 58
59 43 21
59 44 2
59 45 59
59 46 14
59 47 16
59 48 15
59 49 3
59 50 2
59 51 1
59 52 12
59 53 22
59 54 41
59 55 16
59 56 32
59 57 42
59 58 17
60 0 57
60 1 20
60 2 12
60 3 38
60 4 39
60 5 8
60 6 8
60 7 12
60 8 51
60 9 60
60 10 50
60 11 22
60 12 32
60 13 28
60 14 60
60 15 50
60 16 3
60 17 44
60 18 6
60 19 25
60 20 18
60 21 27
60 22 6
60 23 52
60 24 44
60 25 44
60 26 6
60 27 41
60 28 35
60 29 22
60 30 38
60 31 28
60 32 22
60 33 23
60 34 31
60 35 49
60 36 41
60 37 24
60 38 32
60 39 37
60 40 45
60 41 33
60 42 32
60 43 6
60 44 4
60 45 34
60 46 25
60 47 17
60 48 27
60 49 39
60 50 26
60 51 29
60 52 8
60 53 15
60 54 31
60 55 2
60 56 43
60 57 30
60 58 36
60 59 25
61 0 6
61 1 14
61 2 20
61 3 30
61 4 48
61 5 49
61 6 19
61 7 35
61 8 15
61 9 13
61 10 13
61 11 17
61 12 53
61 13 44
61 14 53
61 15 34
61 16 12
61 17 52
61 18 41
61 19 40
61 20 12
61 21 48
61 22 36
61 23 22
61 24 36
61 25 31
61 26 42
61 27 53
61 28 58
61 29 57
61 30 6
61 31 45
61 32 43
61 33 5
61 34 34
61 35 2
61 36 22
61 37 12
61 38 25
61 39 46
61 40 38
61 41 52
61 42 60
61 43 42
61 44 22
61 45 3
61 46 32
61 47 43
61 48 15
61 49 32
61 50 36
61 51 11
61 52 43
61 53 41
61 54 38
61 55 29
61 56 50
61 57 58
61 58 32
61 59 18
61 60 38
62 0 4
62 1 44
62 2 22
62 3 30
62 4 15
62 5 47
62 6 59
62 7 37
62 8 30
62 9 8
62 10 8
62 11 9
62 12 30
62 13 30
62 14 22
62 15 11
62 16 23
62 17 17
62 18 39
62 19 20
62 20 2
62 21 48
62 22 41
62 23 34
62 24 16
62 25 18
62 26 43
62 27 39
62 28 9
62 29 52
62 30 36
62 31 19
62 32 9
62 33 2
62 34 34
62 35 2
62 36 18
62 37 25
62 38 24
62 39 57
62 40 6
62 41 47
62 42 23
62 43 29
62 44 1
62 45 24
62 46 39
62 47 27
62 48 60
62 49 28
62 50 37
62 51 52
62 52 1
62 53 12
62 54 40
62 55 50
62 56 49
62 57 33
62 58 20
62 59 60
62 60 15
62 61 56
63 0 26
63 1 34
63 2 53
63 3 19
63 4 16
63 5 52
63 6 59
63 7 24
63 8 25
63 9 3
63 10 38
63 11 4
63 12 2
63 13 11
63 14 54
63 15 60
63 16 42
63 17 57
63 18 24
63 19 27
63 20 54
63 21 54
63 22 17
63 23 18
63 24 6
63 25 36
63 26 50
63 27 54
63 28 47
63 29 19
63 30 4
63 31 40
63 32 42
63 33 12
63 34 7
63 35 4
63 36 50
63 37 55
63 38 6
63 39 30
63 40 8
63 41 13
63 42 56
63 43 25
63 44 17
63 45 56
63 46 14
63 47 33
63 48 22
63 49 26
63 50 17
63 51 58
63 52 43
63 53 34
63 54 39
63 55 44
63 56 27
63 57 17
63 58 56
63 59 52
63 60 43
63 61 57
63 62 55
64 0 11
64 1 27
64 2 47
64 3 48
64 4 21
64 5 3
64 6 53
64 7 27
64 8 45
64 9 31
64 10 51
64 11 55
64 12 32
64 13 56
64 14 5
64 15 32
64 16 37
64 17 8
64 18 7
64 19 22
64 20 32
64 21 6
64 22 26
64 23 50
64 24 33
64 25 26
64 26 6
64 27 48
64 28 21
64 29 52
64 30 35
64 31 31
64 32 11
64 33 47
64 34 60
64 35 56
64 36 13
64 37 57
64 38 35
64 39 41
64 40 50
64 41 20
64 42 49
64 43 29
64 44 38
64 45 20
64 46 2
64 47 40
64 48 35
64 49 57
64 50 60
64 51 22
64 52 50
64 53 52
64 54 60
64 55 25
64 56 42
64 57 3
64 58 25
64 59 4
64 60 4
64 61 55
64 62 37
64 63 51
65 0 17
65 1 45
65 2 4
65 3 24
65 4 9
65 5 50
65 6 29
65 7 16
65 8 33
65 9 1
65 10 52
65 11 28
65 12 59
65 13 16
65 14 33
65 15 46
65 16 60
65 17 13
65 18 20
65 19 51
65 20 12
65 21 27
65 22 60
65 23 44
65 24 23
65 25 26
65 26 13
65 27 13
65 28 53
65 29 27
65 30 37
65 31 10
65 32 34
65 33 17
65 34 6
65 35 59
65 36 25
65 37 2
65 38 60
65 39 21
65 40 8
65 41 38
65 42 2
65 43 29
65 44 14
65 45 48
65 46 17
65 47 9
65 48 59
65 49 38
65 50 60
65 51 13
65 52 58
65 53 53
65 54 53
65 55 43
65 56 30
65 57 45
65 58 26
65 59 28
65 60 21
65 61 48
65 62 40
65 63 50
65 64 49
66 0 6
66 1 36
66 2 7
66 3 28
66 4 57
66 5 56
66 6 41
66 7 45
66 8 41
66 9 3
66 10 52
66 11 51
66 12 18
66 13 6
66 14 12
66 15 39
66 16 8
66 17 58
66 18 30
66 19 51
66 20 38
66 21 12
66 22 53
66 23 2
66 24 9
66 25 27
66 26 44
66 27 59
66 28 2
66 29 46
66 30 14
66 31 3
66 32 35
66 33 48
66 34 57
66 35 26
66 36 54
66 37 55
66 38 31
66 39 48
66 40 9
66 41 44
66 42 34
66 43 31
66 44 15
66 45 34
66 46 17
66 47 31
66 48 46
66 49 35
66 50 23
66 51 25
66 52 34
66 53 58
66 54 14
66 55 29
66 56 37
66 57 24
66 58 31
66 59 43
66 60 47
66 61 21
66 62 42
66 63 54
66 64 42
66 65 5
67 0 9
67 1 25
67 2 59
67 3 45
67 4 32
67 5 27
67 6 17
67 7 26
67 8 4
67 9 34
67 10 11
67 11 16
67 12 41
67 13 54
67 14 40
67 15 6
67 16 2
67 17 26
67 18 48
67 19 9
67 20 6
67 21 14
67 22 54
67 23 40
67 24 45
67 25 21
67 26 13
67 27 31
67 28 24
67 29 57
67 30 56
67 31 25
67 32 50
67 33 58
67 34 5
67 35 53
67 36 43
67 37 56
67 38 35
67 39 24
67 40 17
67 41 20
67 42 36
67 43 14
67 44 25
67 45 18
67 46 53
67 47 3
67 48 59
67 49 21
67 50 39
67 51 1
67 52 6
67 53 58
67 54 27
67 55 13
67 56 48
67 57 53
67 58 54
67 59 37
67 60 15
67 61 15
67 62 9
67 63 43
67 64 30
67 65 28
67 66 40
68 0 46
68 1 17
68 2 60
68 3 37
68 4 10
68 5 28
68 6 37
68 7 51
68 8 24
68 9 17
68 10 51
68 11 18
68 12 35
68 13 10
68 14 35
68 15 31
68 16 33
68 17 2
68 18 7
68 19 16
68 20 3
68 21 17
68 22 58
68 23 42
68 24 31
68 25 50
68 26 38
68 27 31
68 28 15
68 29 55
68 30 33
68 31 48
68 32 16
68 33 36
68 34 19
68 35 5
68 36 4
68 37 8
68 38 60
68 39 4
68 40 59
68 41 37
68 42 43
68 43 37
68 44 58
68 45 39
68 46 4
68 47 48
68 48 51
68 49 46
68 50 12
68 51 52
68 52 37
68 53 4
68 54 20
68 55 45
68 56 5
68 57 17
68 58 9
68 59 25
68 60 6
68 61 1
68 62 29
68 63 59
68 64 5
68 65 2
68 66 53
68 67 31
69 0 29
69 1 55
69 2 25
69 3 4
69 4 50
69 5 20
69 6 28
69 7 9
69 8 56
69 9 42
69 10 33
69 11 50
69 12 35
69 13 11
69 14 16
69 15 6
69 16 9
69 17 5
69 18 6
69 19 16
69 20 35
69 21 13
69 22 31
69 23 21
69 24 32
69 25 49
69 26 37
69 27 2
69 28 9
69 29 56
69 30 26
69 31 21
69 32 25
69 33 33
69 34 21
69 35 14
69 36 57
69 37 43
69 38 31
69 39 48
69 40 6
69 41 35
69 42 1
69 43 43
69 44 19
69 45 3
69 46 21
69 47 12
69 48 12
69 49 16
69 50 18
69 51 31
69 52 2
69 53 35
69 54 27
69 55 52
69 56 23
69 57 18
69 58 43
69 59 5
69 60 4
69 61 28
69 62 49
69 63 47
69 64 44
69 65 41
69 66 26
69 67 28
69 68 46
